Max k-point distance: 0.250000
0
Gamma
 5 5 5
 0  0  0
