Si_bulk_icsd_60385                      
    1.0     
     5.43101    0.0        0.0
     0.0        5.43101    0.0
     0.0        0.0        5.43101    
   Si
   8
Direct
  0.00  0.00  0.00
  0.00  0.50  0.50
  0.50  0.00  0.50
  0.50  0.50  0.00
  0.25  0.25  0.25
  0.25  0.75  0.75
  0.75  0.25  0.75
  0.75  0.75  0.25
